p cnf 416 1408
-1 -2 0
-1 -3 0
-1 -4 0
-1 -5 0
-2 -3 0
-2 -4 0
-2 -5 0
-3 -4 0
-3 -5 0
-4 -5 0
-6 -7 0
-6 -8 0
-6 -9 0
-6 -10 0
-7 -8 0
-7 -9 0
-7 -10 0
-8 -9 0
-8 -10 0
-9 -10 0
-11 -12 0
-11 -13 0
-11 -14 0
-11 -15 0
-12 -13 0
-12 -14 0
-12 -15 0
-13 -14 0
-13 -15 0
-14 -15 0
-16 -17 0
-16 -18 0
-16 -19 0
-16 -20 0
-17 -18 0
-17 -19 0
-17 -20 0
-18 -19 0
-18 -20 0
-19 -20 0
-21 -22 0
-21 -23 0
-21 -24 0
-21 -25 0
-22 -23 0
-22 -24 0
-22 -25 0
-23 -24 0
-23 -25 0
-24 -25 0
-26 -27 0
-26 -28 0
-26 -29 0
-26 -30 0
-27 -28 0
-27 -29 0
-27 -30 0
-28 -29 0
-28 -30 0
-29 -30 0
-31 -32 0
-31 -33 0
-31 -34 0
-31 -35 0
-32 -33 0
-32 -34 0
-32 -35 0
-33 -34 0
-33 -35 0
-34 -35 0
-36 -37 0
-36 -38 0
-36 -39 0
-36 -40 0
-37 -38 0
-37 -39 0
-37 -40 0
-38 -39 0
-38 -40 0
-39 -40 0
-41 -42 0
-41 -43 0
-41 -44 0
-41 -45 0
-42 -43 0
-42 -44 0
-42 -45 0
-43 -44 0
-43 -45 0
-44 -45 0
-46 -47 0
-46 -48 0
-46 -49 0
-46 -50 0
-47 -48 0
-47 -49 0
-47 -50 0
-48 -49 0
-48 -50 0
-49 -50 0
-51 -52 0
-51 -53 0
-51 -54 0
-51 -55 0
-52 -53 0
-52 -54 0
-52 -55 0
-53 -54 0
-53 -55 0
-54 -55 0
-56 -57 0
-56 -58 0
-56 -59 0
-56 -60 0
-57 -58 0
-57 -59 0
-57 -60 0
-58 -59 0
-58 -60 0
-59 -60 0
-61 -62 0
-61 -63 0
-61 -64 0
-61 -65 0
-62 -63 0
-62 -64 0
-62 -65 0
-63 -64 0
-63 -65 0
-64 -65 0
-66 -67 0
-66 -68 0
-66 -69 0
-66 -70 0
-67 -68 0
-67 -69 0
-67 -70 0
-68 -69 0
-68 -70 0
-69 -70 0
-71 -72 0
-71 -73 0
-71 -74 0
-71 -75 0
-72 -73 0
-72 -74 0
-72 -75 0
-73 -74 0
-73 -75 0
-74 -75 0
-76 -77 0
-76 -78 0
-76 -79 0
-76 -80 0
-77 -78 0
-77 -79 0
-77 -80 0
-78 -79 0
-78 -80 0
-79 -80 0
-81 -82 0
-81 -83 0
-81 -84 0
-81 -85 0
-82 -83 0
-82 -84 0
-82 -85 0
-83 -84 0
-83 -85 0
-84 -85 0
-86 -87 0
-86 -88 0
-86 -89 0
-86 -90 0
-87 -88 0
-87 -89 0
-87 -90 0
-88 -89 0
-88 -90 0
-89 -90 0
-91 -92 0
-91 -93 0
-91 -94 0
-91 -95 0
-92 -93 0
-92 -94 0
-92 -95 0
-93 -94 0
-93 -95 0
-94 -95 0
-96 -97 0
-96 -98 0
-96 -99 0
-96 -100 0
-97 -98 0
-97 -99 0
-97 -100 0
-98 -99 0
-98 -100 0
-99 -100 0
-101 -102 0
-101 -103 0
-101 -104 0
-101 -105 0
-102 -103 0
-102 -104 0
-102 -105 0
-103 -104 0
-103 -105 0
-104 -105 0
-106 -107 0
-106 -108 0
-106 -109 0
-106 -110 0
-107 -108 0
-107 -109 0
-107 -110 0
-108 -109 0
-108 -110 0
-109 -110 0
-111 -112 0
-111 -113 0
-111 -114 0
-111 -115 0
-112 -113 0
-112 -114 0
-112 -115 0
-113 -114 0
-113 -115 0
-114 -115 0
-116 -117 0
-116 -118 0
-116 -119 0
-116 -120 0
-117 -118 0
-117 -119 0
-117 -120 0
-118 -119 0
-118 -120 0
-119 -120 0
-121 -122 0
-121 -123 0
-121 -124 0
-121 -125 0
-122 -123 0
-122 -124 0
-122 -125 0
-123 -124 0
-123 -125 0
-124 -125 0
-126 -127 0
-126 -128 0
-126 -129 0
-126 -130 0
-127 -128 0
-127 -129 0
-127 -130 0
-128 -129 0
-128 -130 0
-129 -130 0
-131 -132 0
-131 -133 0
-131 -134 0
-131 -135 0
-132 -133 0
-132 -134 0
-132 -135 0
-133 -134 0
-133 -135 0
-134 -135 0
-136 -137 0
-136 -138 0
-136 -139 0
-136 -140 0
-137 -138 0
-137 -139 0
-137 -140 0
-138 -139 0
-138 -140 0
-139 -140 0
-141 -142 0
-141 -143 0
-141 -144 0
-141 -145 0
-142 -143 0
-142 -144 0
-142 -145 0
-143 -144 0
-143 -145 0
-144 -145 0
-146 -147 0
-146 -148 0
-146 -149 0
-146 -150 0
-147 -148 0
-147 -149 0
-147 -150 0
-148 -149 0
-148 -150 0
-149 -150 0
-151 -152 0
-151 -153 0
-151 -154 0
-151 -155 0
-152 -153 0
-152 -154 0
-152 -155 0
-153 -154 0
-153 -155 0
-154 -155 0
-156 -157 0
-156 -158 0
-156 -159 0
-156 -160 0
-157 -158 0
-157 -159 0
-157 -160 0
-158 -159 0
-158 -160 0
-159 -160 0
101 31 3 145 26 0
6 119 121 98 22 0
62 12 111 4 53 0
103 109 18 127 86 0
37 88 23 151 34 0
135 27 20 85 25 0
9 32 140 80 69 0
36 83 56 93 117 0
41 120 156 126 35 0
16 125 43 49 139 0
51 47 30 154 11 0
106 77 5 59 24 0
61 108 10 142 153 0
160 131 68 122 64 0
71 28 95 65 76 0
146 123 78 89 54 0
157 150 13 84 105 0
82 87 1 42 67 0
8 147 134 94 2 0
143 45 132 99 15 0
55 60 44 104 72 0
40 107 96 52 158 0
19 118 113 148 155 0
116 141 48 90 138 0
70 92 114 124 102 0
79 50 128 112 39 0
33 110 133 75 46 0
136 129 91 14 21 0
73 66 17 144 38 0
130 58 100 149 63 0
137 152 81 97 74 0
29 7 115 159 57 0
138 90 3 11 111 0
6 121 142 72 100 0
118 12 93 96 79 0
81 145 18 158 39 0
65 10 23 95 154 0
98 27 58 147 151 0
45 32 80 86 21 0
36 73 34 30 119 0
41 139 63 131 160 0
140 19 22 49 52 0
51 60 74 156 115 0
14 125 126 59 40 0
61 53 130 35 150 0
88 37 68 101 97 0
71 43 16 70 13 0
2 129 78 157 155 0
66 146 77 84 137 0
85 87 108 75 92 0
28 135 24 94 114 0
106 127 132 99 20 0
48 5 91 104 148 0
54 107 67 29 1 0
38 62 113 76 110 0
116 25 56 141 4 0
117 103 64 124 83 0
112 8 128 143 44 0
69 31 133 47 122 0
136 7 102 33 57 0
134 105 15 144 55 0
153 89 123 149 17 0
42 152 120 109 46 0
9 50 82 159 26 0
101 31 -161 0
101 -31 161 0
-101 31 161 0
-101 -31 -161 0
101 3 -162 0
101 -3 162 0
-101 3 162 0
-101 -3 -162 0
101 145 -163 0
101 -145 163 0
-101 145 163 0
-101 -145 -163 0
101 26 -164 0
101 -26 164 0
-101 26 164 0
-101 -26 -164 0
6 119 -165 0
6 -119 165 0
-6 119 165 0
-6 -119 -165 0
6 121 -166 0
6 -121 166 0
-6 121 166 0
-6 -121 -166 0
6 98 -167 0
6 -98 167 0
-6 98 167 0
-6 -98 -167 0
6 22 -168 0
6 -22 168 0
-6 22 168 0
-6 -22 -168 0
62 12 -169 0
62 -12 169 0
-62 12 169 0
-62 -12 -169 0
62 111 -170 0
62 -111 170 0
-62 111 170 0
-62 -111 -170 0
62 4 -171 0
62 -4 171 0
-62 4 171 0
-62 -4 -171 0
62 53 -172 0
62 -53 172 0
-62 53 172 0
-62 -53 -172 0
103 109 -173 0
103 -109 173 0
-103 109 173 0
-103 -109 -173 0
103 18 -174 0
103 -18 174 0
-103 18 174 0
-103 -18 -174 0
103 127 -175 0
103 -127 175 0
-103 127 175 0
-103 -127 -175 0
103 86 -176 0
103 -86 176 0
-103 86 176 0
-103 -86 -176 0
37 88 -177 0
37 -88 177 0
-37 88 177 0
-37 -88 -177 0
37 23 -178 0
37 -23 178 0
-37 23 178 0
-37 -23 -178 0
37 151 -179 0
37 -151 179 0
-37 151 179 0
-37 -151 -179 0
37 34 -180 0
37 -34 180 0
-37 34 180 0
-37 -34 -180 0
135 27 -181 0
135 -27 181 0
-135 27 181 0
-135 -27 -181 0
135 20 -182 0
135 -20 182 0
-135 20 182 0
-135 -20 -182 0
135 85 -183 0
135 -85 183 0
-135 85 183 0
-135 -85 -183 0
135 25 -184 0
135 -25 184 0
-135 25 184 0
-135 -25 -184 0
9 32 -185 0
9 -32 185 0
-9 32 185 0
-9 -32 -185 0
9 140 -186 0
9 -140 186 0
-9 140 186 0
-9 -140 -186 0
9 80 -187 0
9 -80 187 0
-9 80 187 0
-9 -80 -187 0
9 69 -188 0
9 -69 188 0
-9 69 188 0
-9 -69 -188 0
36 83 -189 0
36 -83 189 0
-36 83 189 0
-36 -83 -189 0
36 56 -190 0
36 -56 190 0
-36 56 190 0
-36 -56 -190 0
36 93 -191 0
36 -93 191 0
-36 93 191 0
-36 -93 -191 0
36 117 -192 0
36 -117 192 0
-36 117 192 0
-36 -117 -192 0
41 120 -193 0
41 -120 193 0
-41 120 193 0
-41 -120 -193 0
41 156 -194 0
41 -156 194 0
-41 156 194 0
-41 -156 -194 0
41 126 -195 0
41 -126 195 0
-41 126 195 0
-41 -126 -195 0
41 35 -196 0
41 -35 196 0
-41 35 196 0
-41 -35 -196 0
16 125 -197 0
16 -125 197 0
-16 125 197 0
-16 -125 -197 0
16 43 -198 0
16 -43 198 0
-16 43 198 0
-16 -43 -198 0
16 49 -199 0
16 -49 199 0
-16 49 199 0
-16 -49 -199 0
16 139 -200 0
16 -139 200 0
-16 139 200 0
-16 -139 -200 0
51 47 -201 0
51 -47 201 0
-51 47 201 0
-51 -47 -201 0
51 30 -202 0
51 -30 202 0
-51 30 202 0
-51 -30 -202 0
51 154 -203 0
51 -154 203 0
-51 154 203 0
-51 -154 -203 0
51 11 -204 0
51 -11 204 0
-51 11 204 0
-51 -11 -204 0
106 77 -205 0
106 -77 205 0
-106 77 205 0
-106 -77 -205 0
106 5 -206 0
106 -5 206 0
-106 5 206 0
-106 -5 -206 0
106 59 -207 0
106 -59 207 0
-106 59 207 0
-106 -59 -207 0
106 24 -208 0
106 -24 208 0
-106 24 208 0
-106 -24 -208 0
61 108 -209 0
61 -108 209 0
-61 108 209 0
-61 -108 -209 0
61 10 -210 0
61 -10 210 0
-61 10 210 0
-61 -10 -210 0
61 142 -211 0
61 -142 211 0
-61 142 211 0
-61 -142 -211 0
61 153 -212 0
61 -153 212 0
-61 153 212 0
-61 -153 -212 0
160 131 -213 0
160 -131 213 0
-160 131 213 0
-160 -131 -213 0
160 68 -214 0
160 -68 214 0
-160 68 214 0
-160 -68 -214 0
160 122 -215 0
160 -122 215 0
-160 122 215 0
-160 -122 -215 0
160 64 -216 0
160 -64 216 0
-160 64 216 0
-160 -64 -216 0
71 28 -217 0
71 -28 217 0
-71 28 217 0
-71 -28 -217 0
71 95 -218 0
71 -95 218 0
-71 95 218 0
-71 -95 -218 0
71 65 -219 0
71 -65 219 0
-71 65 219 0
-71 -65 -219 0
71 76 -220 0
71 -76 220 0
-71 76 220 0
-71 -76 -220 0
146 123 -221 0
146 -123 221 0
-146 123 221 0
-146 -123 -221 0
146 78 -222 0
146 -78 222 0
-146 78 222 0
-146 -78 -222 0
146 89 -223 0
146 -89 223 0
-146 89 223 0
-146 -89 -223 0
146 54 -224 0
146 -54 224 0
-146 54 224 0
-146 -54 -224 0
157 150 -225 0
157 -150 225 0
-157 150 225 0
-157 -150 -225 0
157 13 -226 0
157 -13 226 0
-157 13 226 0
-157 -13 -226 0
157 84 -227 0
157 -84 227 0
-157 84 227 0
-157 -84 -227 0
157 105 -228 0
157 -105 228 0
-157 105 228 0
-157 -105 -228 0
82 87 -229 0
82 -87 229 0
-82 87 229 0
-82 -87 -229 0
82 1 -230 0
82 -1 230 0
-82 1 230 0
-82 -1 -230 0
82 42 -231 0
82 -42 231 0
-82 42 231 0
-82 -42 -231 0
82 67 -232 0
82 -67 232 0
-82 67 232 0
-82 -67 -232 0
8 147 -233 0
8 -147 233 0
-8 147 233 0
-8 -147 -233 0
8 134 -234 0
8 -134 234 0
-8 134 234 0
-8 -134 -234 0
8 94 -235 0
8 -94 235 0
-8 94 235 0
-8 -94 -235 0
8 2 -236 0
8 -2 236 0
-8 2 236 0
-8 -2 -236 0
143 45 -237 0
143 -45 237 0
-143 45 237 0
-143 -45 -237 0
143 132 -238 0
143 -132 238 0
-143 132 238 0
-143 -132 -238 0
143 99 -239 0
143 -99 239 0
-143 99 239 0
-143 -99 -239 0
143 15 -240 0
143 -15 240 0
-143 15 240 0
-143 -15 -240 0
55 60 -241 0
55 -60 241 0
-55 60 241 0
-55 -60 -241 0
55 44 -242 0
55 -44 242 0
-55 44 242 0
-55 -44 -242 0
55 104 -243 0
55 -104 243 0
-55 104 243 0
-55 -104 -243 0
55 72 -244 0
55 -72 244 0
-55 72 244 0
-55 -72 -244 0
40 107 -245 0
40 -107 245 0
-40 107 245 0
-40 -107 -245 0
40 96 -246 0
40 -96 246 0
-40 96 246 0
-40 -96 -246 0
40 52 -247 0
40 -52 247 0
-40 52 247 0
-40 -52 -247 0
40 158 -248 0
40 -158 248 0
-40 158 248 0
-40 -158 -248 0
19 118 -249 0
19 -118 249 0
-19 118 249 0
-19 -118 -249 0
19 113 -250 0
19 -113 250 0
-19 113 250 0
-19 -113 -250 0
19 148 -251 0
19 -148 251 0
-19 148 251 0
-19 -148 -251 0
19 155 -252 0
19 -155 252 0
-19 155 252 0
-19 -155 -252 0
116 141 -253 0
116 -141 253 0
-116 141 253 0
-116 -141 -253 0
116 48 -254 0
116 -48 254 0
-116 48 254 0
-116 -48 -254 0
116 90 -255 0
116 -90 255 0
-116 90 255 0
-116 -90 -255 0
116 138 -256 0
116 -138 256 0
-116 138 256 0
-116 -138 -256 0
70 92 -257 0
70 -92 257 0
-70 92 257 0
-70 -92 -257 0
70 114 -258 0
70 -114 258 0
-70 114 258 0
-70 -114 -258 0
70 124 -259 0
70 -124 259 0
-70 124 259 0
-70 -124 -259 0
70 102 -260 0
70 -102 260 0
-70 102 260 0
-70 -102 -260 0
79 50 -261 0
79 -50 261 0
-79 50 261 0
-79 -50 -261 0
79 128 -262 0
79 -128 262 0
-79 128 262 0
-79 -128 -262 0
79 112 -263 0
79 -112 263 0
-79 112 263 0
-79 -112 -263 0
79 39 -264 0
79 -39 264 0
-79 39 264 0
-79 -39 -264 0
33 110 -265 0
33 -110 265 0
-33 110 265 0
-33 -110 -265 0
33 133 -266 0
33 -133 266 0
-33 133 266 0
-33 -133 -266 0
33 75 -267 0
33 -75 267 0
-33 75 267 0
-33 -75 -267 0
33 46 -268 0
33 -46 268 0
-33 46 268 0
-33 -46 -268 0
136 129 -269 0
136 -129 269 0
-136 129 269 0
-136 -129 -269 0
136 91 -270 0
136 -91 270 0
-136 91 270 0
-136 -91 -270 0
136 14 -271 0
136 -14 271 0
-136 14 271 0
-136 -14 -271 0
136 21 -272 0
136 -21 272 0
-136 21 272 0
-136 -21 -272 0
73 66 -273 0
73 -66 273 0
-73 66 273 0
-73 -66 -273 0
73 17 -274 0
73 -17 274 0
-73 17 274 0
-73 -17 -274 0
73 144 -275 0
73 -144 275 0
-73 144 275 0
-73 -144 -275 0
73 38 -276 0
73 -38 276 0
-73 38 276 0
-73 -38 -276 0
130 58 -277 0
130 -58 277 0
-130 58 277 0
-130 -58 -277 0
130 100 -278 0
130 -100 278 0
-130 100 278 0
-130 -100 -278 0
130 149 -279 0
130 -149 279 0
-130 149 279 0
-130 -149 -279 0
130 63 -280 0
130 -63 280 0
-130 63 280 0
-130 -63 -280 0
137 152 -281 0
137 -152 281 0
-137 152 281 0
-137 -152 -281 0
137 81 -282 0
137 -81 282 0
-137 81 282 0
-137 -81 -282 0
137 97 -283 0
137 -97 283 0
-137 97 283 0
-137 -97 -283 0
137 74 -284 0
137 -74 284 0
-137 74 284 0
-137 -74 -284 0
29 7 -285 0
29 -7 285 0
-29 7 285 0
-29 -7 -285 0
29 115 -286 0
29 -115 286 0
-29 115 286 0
-29 -115 -286 0
29 159 -287 0
29 -159 287 0
-29 159 287 0
-29 -159 -287 0
29 57 -288 0
29 -57 288 0
-29 57 288 0
-29 -57 -288 0
138 90 -289 0
138 -90 289 0
-138 90 289 0
-138 -90 -289 0
138 3 -290 0
138 -3 290 0
-138 3 290 0
-138 -3 -290 0
138 11 -291 0
138 -11 291 0
-138 11 291 0
-138 -11 -291 0
138 111 -292 0
138 -111 292 0
-138 111 292 0
-138 -111 -292 0
6 121 -293 0
6 -121 293 0
-6 121 293 0
-6 -121 -293 0
6 142 -294 0
6 -142 294 0
-6 142 294 0
-6 -142 -294 0
6 72 -295 0
6 -72 295 0
-6 72 295 0
-6 -72 -295 0
6 100 -296 0
6 -100 296 0
-6 100 296 0
-6 -100 -296 0
118 12 -297 0
118 -12 297 0
-118 12 297 0
-118 -12 -297 0
118 93 -298 0
118 -93 298 0
-118 93 298 0
-118 -93 -298 0
118 96 -299 0
118 -96 299 0
-118 96 299 0
-118 -96 -299 0
118 79 -300 0
118 -79 300 0
-118 79 300 0
-118 -79 -300 0
81 145 -301 0
81 -145 301 0
-81 145 301 0
-81 -145 -301 0
81 18 -302 0
81 -18 302 0
-81 18 302 0
-81 -18 -302 0
81 158 -303 0
81 -158 303 0
-81 158 303 0
-81 -158 -303 0
81 39 -304 0
81 -39 304 0
-81 39 304 0
-81 -39 -304 0
65 10 -305 0
65 -10 305 0
-65 10 305 0
-65 -10 -305 0
65 23 -306 0
65 -23 306 0
-65 23 306 0
-65 -23 -306 0
65 95 -307 0
65 -95 307 0
-65 95 307 0
-65 -95 -307 0
65 154 -308 0
65 -154 308 0
-65 154 308 0
-65 -154 -308 0
98 27 -309 0
98 -27 309 0
-98 27 309 0
-98 -27 -309 0
98 58 -310 0
98 -58 310 0
-98 58 310 0
-98 -58 -310 0
98 147 -311 0
98 -147 311 0
-98 147 311 0
-98 -147 -311 0
98 151 -312 0
98 -151 312 0
-98 151 312 0
-98 -151 -312 0
45 32 -313 0
45 -32 313 0
-45 32 313 0
-45 -32 -313 0
45 80 -314 0
45 -80 314 0
-45 80 314 0
-45 -80 -314 0
45 86 -315 0
45 -86 315 0
-45 86 315 0
-45 -86 -315 0
45 21 -316 0
45 -21 316 0
-45 21 316 0
-45 -21 -316 0
36 73 -317 0
36 -73 317 0
-36 73 317 0
-36 -73 -317 0
36 34 -318 0
36 -34 318 0
-36 34 318 0
-36 -34 -318 0
36 30 -319 0
36 -30 319 0
-36 30 319 0
-36 -30 -319 0
36 119 -320 0
36 -119 320 0
-36 119 320 0
-36 -119 -320 0
41 139 -321 0
41 -139 321 0
-41 139 321 0
-41 -139 -321 0
41 63 -322 0
41 -63 322 0
-41 63 322 0
-41 -63 -322 0
41 131 -323 0
41 -131 323 0
-41 131 323 0
-41 -131 -323 0
41 160 -324 0
41 -160 324 0
-41 160 324 0
-41 -160 -324 0
140 19 -325 0
140 -19 325 0
-140 19 325 0
-140 -19 -325 0
140 22 -326 0
140 -22 326 0
-140 22 326 0
-140 -22 -326 0
140 49 -327 0
140 -49 327 0
-140 49 327 0
-140 -49 -327 0
140 52 -328 0
140 -52 328 0
-140 52 328 0
-140 -52 -328 0
51 60 -329 0
51 -60 329 0
-51 60 329 0
-51 -60 -329 0
51 74 -330 0
51 -74 330 0
-51 74 330 0
-51 -74 -330 0
51 156 -331 0
51 -156 331 0
-51 156 331 0
-51 -156 -331 0
51 115 -332 0
51 -115 332 0
-51 115 332 0
-51 -115 -332 0
14 125 -333 0
14 -125 333 0
-14 125 333 0
-14 -125 -333 0
14 126 -334 0
14 -126 334 0
-14 126 334 0
-14 -126 -334 0
14 59 -335 0
14 -59 335 0
-14 59 335 0
-14 -59 -335 0
14 40 -336 0
14 -40 336 0
-14 40 336 0
-14 -40 -336 0
61 53 -337 0
61 -53 337 0
-61 53 337 0
-61 -53 -337 0
61 130 -338 0
61 -130 338 0
-61 130 338 0
-61 -130 -338 0
61 35 -339 0
61 -35 339 0
-61 35 339 0
-61 -35 -339 0
61 150 -340 0
61 -150 340 0
-61 150 340 0
-61 -150 -340 0
88 37 -341 0
88 -37 341 0
-88 37 341 0
-88 -37 -341 0
88 68 -342 0
88 -68 342 0
-88 68 342 0
-88 -68 -342 0
88 101 -343 0
88 -101 343 0
-88 101 343 0
-88 -101 -343 0
88 97 -344 0
88 -97 344 0
-88 97 344 0
-88 -97 -344 0
71 43 -345 0
71 -43 345 0
-71 43 345 0
-71 -43 -345 0
71 16 -346 0
71 -16 346 0
-71 16 346 0
-71 -16 -346 0
71 70 -347 0
71 -70 347 0
-71 70 347 0
-71 -70 -347 0
71 13 -348 0
71 -13 348 0
-71 13 348 0
-71 -13 -348 0
2 129 -349 0
2 -129 349 0
-2 129 349 0
-2 -129 -349 0
2 78 -350 0
2 -78 350 0
-2 78 350 0
-2 -78 -350 0
2 157 -351 0
2 -157 351 0
-2 157 351 0
-2 -157 -351 0
2 155 -352 0
2 -155 352 0
-2 155 352 0
-2 -155 -352 0
66 146 -353 0
66 -146 353 0
-66 146 353 0
-66 -146 -353 0
66 77 -354 0
66 -77 354 0
-66 77 354 0
-66 -77 -354 0
66 84 -355 0
66 -84 355 0
-66 84 355 0
-66 -84 -355 0
66 137 -356 0
66 -137 356 0
-66 137 356 0
-66 -137 -356 0
85 87 -357 0
85 -87 357 0
-85 87 357 0
-85 -87 -357 0
85 108 -358 0
85 -108 358 0
-85 108 358 0
-85 -108 -358 0
85 75 -359 0
85 -75 359 0
-85 75 359 0
-85 -75 -359 0
85 92 -360 0
85 -92 360 0
-85 92 360 0
-85 -92 -360 0
28 135 -361 0
28 -135 361 0
-28 135 361 0
-28 -135 -361 0
28 24 -362 0
28 -24 362 0
-28 24 362 0
-28 -24 -362 0
28 94 -363 0
28 -94 363 0
-28 94 363 0
-28 -94 -363 0
28 114 -364 0
28 -114 364 0
-28 114 364 0
-28 -114 -364 0
106 127 -365 0
106 -127 365 0
-106 127 365 0
-106 -127 -365 0
106 132 -366 0
106 -132 366 0
-106 132 366 0
-106 -132 -366 0
106 99 -367 0
106 -99 367 0
-106 99 367 0
-106 -99 -367 0
106 20 -368 0
106 -20 368 0
-106 20 368 0
-106 -20 -368 0
48 5 -369 0
48 -5 369 0
-48 5 369 0
-48 -5 -369 0
48 91 -370 0
48 -91 370 0
-48 91 370 0
-48 -91 -370 0
48 104 -371 0
48 -104 371 0
-48 104 371 0
-48 -104 -371 0
48 148 -372 0
48 -148 372 0
-48 148 372 0
-48 -148 -372 0
54 107 -373 0
54 -107 373 0
-54 107 373 0
-54 -107 -373 0
54 67 -374 0
54 -67 374 0
-54 67 374 0
-54 -67 -374 0
54 29 -375 0
54 -29 375 0
-54 29 375 0
-54 -29 -375 0
54 1 -376 0
54 -1 376 0
-54 1 376 0
-54 -1 -376 0
38 62 -377 0
38 -62 377 0
-38 62 377 0
-38 -62 -377 0
38 113 -378 0
38 -113 378 0
-38 113 378 0
-38 -113 -378 0
38 76 -379 0
38 -76 379 0
-38 76 379 0
-38 -76 -379 0
38 110 -380 0
38 -110 380 0
-38 110 380 0
-38 -110 -380 0
116 25 -381 0
116 -25 381 0
-116 25 381 0
-116 -25 -381 0
116 56 -382 0
116 -56 382 0
-116 56 382 0
-116 -56 -382 0
116 141 -383 0
116 -141 383 0
-116 141 383 0
-116 -141 -383 0
116 4 -384 0
116 -4 384 0
-116 4 384 0
-116 -4 -384 0
117 103 -385 0
117 -103 385 0
-117 103 385 0
-117 -103 -385 0
117 64 -386 0
117 -64 386 0
-117 64 386 0
-117 -64 -386 0
117 124 -387 0
117 -124 387 0
-117 124 387 0
-117 -124 -387 0
117 83 -388 0
117 -83 388 0
-117 83 388 0
-117 -83 -388 0
112 8 -389 0
112 -8 389 0
-112 8 389 0
-112 -8 -389 0
112 128 -390 0
112 -128 390 0
-112 128 390 0
-112 -128 -390 0
112 143 -391 0
112 -143 391 0
-112 143 391 0
-112 -143 -391 0
112 44 -392 0
112 -44 392 0
-112 44 392 0
-112 -44 -392 0
69 31 -393 0
69 -31 393 0
-69 31 393 0
-69 -31 -393 0
69 133 -394 0
69 -133 394 0
-69 133 394 0
-69 -133 -394 0
69 47 -395 0
69 -47 395 0
-69 47 395 0
-69 -47 -395 0
69 122 -396 0
69 -122 396 0
-69 122 396 0
-69 -122 -396 0
136 7 -397 0
136 -7 397 0
-136 7 397 0
-136 -7 -397 0
136 102 -398 0
136 -102 398 0
-136 102 398 0
-136 -102 -398 0
136 33 -399 0
136 -33 399 0
-136 33 399 0
-136 -33 -399 0
136 57 -400 0
136 -57 400 0
-136 57 400 0
-136 -57 -400 0
134 105 -401 0
134 -105 401 0
-134 105 401 0
-134 -105 -401 0
134 15 -402 0
134 -15 402 0
-134 15 402 0
-134 -15 -402 0
134 144 -403 0
134 -144 403 0
-134 144 403 0
-134 -144 -403 0
134 55 -404 0
134 -55 404 0
-134 55 404 0
-134 -55 -404 0
153 89 -405 0
153 -89 405 0
-153 89 405 0
-153 -89 -405 0
153 123 -406 0
153 -123 406 0
-153 123 406 0
-153 -123 -406 0
153 149 -407 0
153 -149 407 0
-153 149 407 0
-153 -149 -407 0
153 17 -408 0
153 -17 408 0
-153 17 408 0
-153 -17 -408 0
42 152 -409 0
42 -152 409 0
-42 152 409 0
-42 -152 -409 0
42 120 -410 0
42 -120 410 0
-42 120 410 0
-42 -120 -410 0
42 109 -411 0
42 -109 411 0
-42 109 411 0
-42 -109 -411 0
42 46 -412 0
42 -46 412 0
-42 46 412 0
-42 -46 -412 0
9 50 -413 0
9 -50 413 0
-9 50 413 0
-9 -50 -413 0
9 82 -414 0
9 -82 414 0
-9 82 414 0
-9 -82 -414 0
9 159 -415 0
9 -159 415 0
-9 159 415 0
-9 -159 -415 0
9 26 -416 0
9 -26 416 0
-9 26 416 0
-9 -26 -416 0
